c Standarized MaxSat Instance
c{
c "sha1sum": "b8ce5fd59b91a8a2ec99f72be6c182bb796586b9",
c "nvars": 256,
c "ncls": 1280,
c "total_lits": 2304,
c "nhards": 1024,
c "nhard_nlits": 2048,
c "nhard_len_stats":
c    { "min": 2,
c      "max": 2,
c      "ave": 2.0000,
c      "stddev": 0.0000 },
c "nsofts": 256,
c "nsoft_nlits": 256,
c "nsoft_len_stats":
c    { "min": 1,
c      "max": 1,
c      "ave": 1.0000,
c      "stddev": 0.0000 },
c "nsoft_wts": 1,
c "soft_wt_stats":
c    { "min": 1,
c      "max": 1,
c      "ave": 1.0000,
c      "stddev": 0.0000 }
c}
c------------------------------------------------------------
c File:  hamming8-2.clq
c
c Source: Panos Pardalos pardalos@math.ufl.edu
c
c Reference: hamminga-b is a Hamming graph on a-bit words with
c            an edge if and only if the two words are at least
c            hamming distance b apart
c
c PSEUDOBOOLEAN 256
1 -1 0
1 -2 0
1 -3 0
1 -4 0
1 -5 0
1 -6 0
1 -7 0
1 -8 0
1 -9 0
1 -10 0
1 -11 0
1 -12 0
1 -13 0
1 -14 0
1 -15 0
1 -16 0
1 -17 0
1 -18 0
1 -19 0
1 -20 0
1 -21 0
1 -22 0
1 -23 0
1 -24 0
1 -25 0
1 -26 0
1 -27 0
1 -28 0
1 -29 0
1 -30 0
1 -31 0
1 -32 0
1 -33 0
1 -34 0
1 -35 0
1 -36 0
1 -37 0
1 -38 0
1 -39 0
1 -40 0
1 -41 0
1 -42 0
1 -43 0
1 -44 0
1 -45 0
1 -46 0
1 -47 0
1 -48 0
1 -49 0
1 -50 0
1 -51 0
1 -52 0
1 -53 0
1 -54 0
1 -55 0
1 -56 0
1 -57 0
1 -58 0
1 -59 0
1 -60 0
1 -61 0
1 -62 0
1 -63 0
1 -64 0
1 -65 0
1 -66 0
1 -67 0
1 -68 0
1 -69 0
1 -70 0
1 -71 0
1 -72 0
1 -73 0
1 -74 0
1 -75 0
1 -76 0
1 -77 0
1 -78 0
1 -79 0
1 -80 0
1 -81 0
1 -82 0
1 -83 0
1 -84 0
1 -85 0
1 -86 0
1 -87 0
1 -88 0
1 -89 0
1 -90 0
1 -91 0
1 -92 0
1 -93 0
1 -94 0
1 -95 0
1 -96 0
1 -97 0
1 -98 0
1 -99 0
1 -100 0
1 -101 0
1 -102 0
1 -103 0
1 -104 0
1 -105 0
1 -106 0
1 -107 0
1 -108 0
1 -109 0
1 -110 0
1 -111 0
1 -112 0
1 -113 0
1 -114 0
1 -115 0
1 -116 0
1 -117 0
1 -118 0
1 -119 0
1 -120 0
1 -121 0
1 -122 0
1 -123 0
1 -124 0
1 -125 0
1 -126 0
1 -127 0
1 -128 0
1 -129 0
1 -130 0
1 -131 0
1 -132 0
1 -133 0
1 -134 0
1 -135 0
1 -136 0
1 -137 0
1 -138 0
1 -139 0
1 -140 0
1 -141 0
1 -142 0
1 -143 0
1 -144 0
1 -145 0
1 -146 0
1 -147 0
1 -148 0
1 -149 0
1 -150 0
1 -151 0
1 -152 0
1 -153 0
1 -154 0
1 -155 0
1 -156 0
1 -157 0
1 -158 0
1 -159 0
1 -160 0
1 -161 0
1 -162 0
1 -163 0
1 -164 0
1 -165 0
1 -166 0
1 -167 0
1 -168 0
1 -169 0
1 -170 0
1 -171 0
1 -172 0
1 -173 0
1 -174 0
1 -175 0
1 -176 0
1 -177 0
1 -178 0
1 -179 0
1 -180 0
1 -181 0
1 -182 0
1 -183 0
1 -184 0
1 -185 0
1 -186 0
1 -187 0
1 -188 0
1 -189 0
1 -190 0
1 -191 0
1 -192 0
1 -193 0
1 -194 0
1 -195 0
1 -196 0
1 -197 0
1 -198 0
1 -199 0
1 -200 0
1 -201 0
1 -202 0
1 -203 0
1 -204 0
1 -205 0
1 -206 0
1 -207 0
1 -208 0
1 -209 0
1 -210 0
1 -211 0
1 -212 0
1 -213 0
1 -214 0
1 -215 0
1 -216 0
1 -217 0
1 -218 0
1 -219 0
1 -220 0
1 -221 0
1 -222 0
1 -223 0
1 -224 0
1 -225 0
1 -226 0
1 -227 0
1 -228 0
1 -229 0
1 -230 0
1 -231 0
1 -232 0
1 -233 0
1 -234 0
1 -235 0
1 -236 0
1 -237 0
1 -238 0
1 -239 0
1 -240 0
1 -241 0
1 -242 0
1 -243 0
1 -244 0
1 -245 0
1 -246 0
1 -247 0
1 -248 0
1 -249 0
1 -250 0
1 -251 0
1 -252 0
1 -253 0
1 -254 0
1 -255 0
1 -256 0
h 1 2 0
h 1 3 0
h 1 5 0
h 1 9 0
h 1 17 0
h 1 33 0
h 1 65 0
h 1 129 0
h 2 4 0
h 2 6 0
h 2 10 0
h 2 18 0
h 2 34 0
h 2 66 0
h 2 130 0
h 3 4 0
h 3 7 0
h 3 11 0
h 3 19 0
h 3 35 0
h 3 67 0
h 3 131 0
h 4 8 0
h 4 12 0
h 4 20 0
h 4 36 0
h 4 68 0
h 4 132 0
h 5 6 0
h 5 7 0
h 5 13 0
h 5 21 0
h 5 37 0
h 5 69 0
h 5 133 0
h 6 8 0
h 6 14 0
h 6 22 0
h 6 38 0
h 6 70 0
h 6 134 0
h 7 8 0
h 7 15 0
h 7 23 0
h 7 39 0
h 7 71 0
h 7 135 0
h 8 16 0
h 8 24 0
h 8 40 0
h 8 72 0
h 8 136 0
h 9 10 0
h 9 11 0
h 9 13 0
h 9 25 0
h 9 41 0
h 9 73 0
h 9 137 0
h 10 12 0
h 10 14 0
h 10 26 0
h 10 42 0
h 10 74 0
h 10 138 0
h 11 12 0
h 11 15 0
h 11 27 0
h 11 43 0
h 11 75 0
h 11 139 0
h 12 16 0
h 12 28 0
h 12 44 0
h 12 76 0
h 12 140 0
h 13 14 0
h 13 15 0
h 13 29 0
h 13 45 0
h 13 77 0
h 13 141 0
h 14 16 0
h 14 30 0
h 14 46 0
h 14 78 0
h 14 142 0
h 15 16 0
h 15 31 0
h 15 47 0
h 15 79 0
h 15 143 0
h 16 32 0
h 16 48 0
h 16 80 0
h 16 144 0
h 17 18 0
h 17 19 0
h 17 21 0
h 17 25 0
h 17 49 0
h 17 81 0
h 17 145 0
h 18 20 0
h 18 22 0
h 18 26 0
h 18 50 0
h 18 82 0
h 18 146 0
h 19 20 0
h 19 23 0
h 19 27 0
h 19 51 0
h 19 83 0
h 19 147 0
h 20 24 0
h 20 28 0
h 20 52 0
h 20 84 0
h 20 148 0
h 21 22 0
h 21 23 0
h 21 29 0
h 21 53 0
h 21 85 0
h 21 149 0
h 22 24 0
h 22 30 0
h 22 54 0
h 22 86 0
h 22 150 0
h 23 24 0
h 23 31 0
h 23 55 0
h 23 87 0
h 23 151 0
h 24 32 0
h 24 56 0
h 24 88 0
h 24 152 0
h 25 26 0
h 25 27 0
h 25 29 0
h 25 57 0
h 25 89 0
h 25 153 0
h 26 28 0
h 26 30 0
h 26 58 0
h 26 90 0
h 26 154 0
h 27 28 0
h 27 31 0
h 27 59 0
h 27 91 0
h 27 155 0
h 28 32 0
h 28 60 0
h 28 92 0
h 28 156 0
h 29 30 0
h 29 31 0
h 29 61 0
h 29 93 0
h 29 157 0
h 30 32 0
h 30 62 0
h 30 94 0
h 30 158 0
h 31 32 0
h 31 63 0
h 31 95 0
h 31 159 0
h 32 64 0
h 32 96 0
h 32 160 0
h 33 34 0
h 33 35 0
h 33 37 0
h 33 41 0
h 33 49 0
h 33 97 0
h 33 161 0
h 34 36 0
h 34 38 0
h 34 42 0
h 34 50 0
h 34 98 0
h 34 162 0
h 35 36 0
h 35 39 0
h 35 43 0
h 35 51 0
h 35 99 0
h 35 163 0
h 36 40 0
h 36 44 0
h 36 52 0
h 36 100 0
h 36 164 0
h 37 38 0
h 37 39 0
h 37 45 0
h 37 53 0
h 37 101 0
h 37 165 0
h 38 40 0
h 38 46 0
h 38 54 0
h 38 102 0
h 38 166 0
h 39 40 0
h 39 47 0
h 39 55 0
h 39 103 0
h 39 167 0
h 40 48 0
h 40 56 0
h 40 104 0
h 40 168 0
h 41 42 0
h 41 43 0
h 41 45 0
h 41 57 0
h 41 105 0
h 41 169 0
h 42 44 0
h 42 46 0
h 42 58 0
h 42 106 0
h 42 170 0
h 43 44 0
h 43 47 0
h 43 59 0
h 43 107 0
h 43 171 0
h 44 48 0
h 44 60 0
h 44 108 0
h 44 172 0
h 45 46 0
h 45 47 0
h 45 61 0
h 45 109 0
h 45 173 0
h 46 48 0
h 46 62 0
h 46 110 0
h 46 174 0
h 47 48 0
h 47 63 0
h 47 111 0
h 47 175 0
h 48 64 0
h 48 112 0
h 48 176 0
h 49 50 0
h 49 51 0
h 49 53 0
h 49 57 0
h 49 113 0
h 49 177 0
h 50 52 0
h 50 54 0
h 50 58 0
h 50 114 0
h 50 178 0
h 51 52 0
h 51 55 0
h 51 59 0
h 51 115 0
h 51 179 0
h 52 56 0
h 52 60 0
h 52 116 0
h 52 180 0
h 53 54 0
h 53 55 0
h 53 61 0
h 53 117 0
h 53 181 0
h 54 56 0
h 54 62 0
h 54 118 0
h 54 182 0
h 55 56 0
h 55 63 0
h 55 119 0
h 55 183 0
h 56 64 0
h 56 120 0
h 56 184 0
h 57 58 0
h 57 59 0
h 57 61 0
h 57 121 0
h 57 185 0
h 58 60 0
h 58 62 0
h 58 122 0
h 58 186 0
h 59 60 0
h 59 63 0
h 59 123 0
h 59 187 0
h 60 64 0
h 60 124 0
h 60 188 0
h 61 62 0
h 61 63 0
h 61 125 0
h 61 189 0
h 62 64 0
h 62 126 0
h 62 190 0
h 63 64 0
h 63 127 0
h 63 191 0
h 64 128 0
h 64 192 0
h 65 66 0
h 65 67 0
h 65 69 0
h 65 73 0
h 65 81 0
h 65 97 0
h 65 193 0
h 66 68 0
h 66 70 0
h 66 74 0
h 66 82 0
h 66 98 0
h 66 194 0
h 67 68 0
h 67 71 0
h 67 75 0
h 67 83 0
h 67 99 0
h 67 195 0
h 68 72 0
h 68 76 0
h 68 84 0
h 68 100 0
h 68 196 0
h 69 70 0
h 69 71 0
h 69 77 0
h 69 85 0
h 69 101 0
h 69 197 0
h 70 72 0
h 70 78 0
h 70 86 0
h 70 102 0
h 70 198 0
h 71 72 0
h 71 79 0
h 71 87 0
h 71 103 0
h 71 199 0
h 72 80 0
h 72 88 0
h 72 104 0
h 72 200 0
h 73 74 0
h 73 75 0
h 73 77 0
h 73 89 0
h 73 105 0
h 73 201 0
h 74 76 0
h 74 78 0
h 74 90 0
h 74 106 0
h 74 202 0
h 75 76 0
h 75 79 0
h 75 91 0
h 75 107 0
h 75 203 0
h 76 80 0
h 76 92 0
h 76 108 0
h 76 204 0
h 77 78 0
h 77 79 0
h 77 93 0
h 77 109 0
h 77 205 0
h 78 80 0
h 78 94 0
h 78 110 0
h 78 206 0
h 79 80 0
h 79 95 0
h 79 111 0
h 79 207 0
h 80 96 0
h 80 112 0
h 80 208 0
h 81 82 0
h 81 83 0
h 81 85 0
h 81 89 0
h 81 113 0
h 81 209 0
h 82 84 0
h 82 86 0
h 82 90 0
h 82 114 0
h 82 210 0
h 83 84 0
h 83 87 0
h 83 91 0
h 83 115 0
h 83 211 0
h 84 88 0
h 84 92 0
h 84 116 0
h 84 212 0
h 85 86 0
h 85 87 0
h 85 93 0
h 85 117 0
h 85 213 0
h 86 88 0
h 86 94 0
h 86 118 0
h 86 214 0
h 87 88 0
h 87 95 0
h 87 119 0
h 87 215 0
h 88 96 0
h 88 120 0
h 88 216 0
h 89 90 0
h 89 91 0
h 89 93 0
h 89 121 0
h 89 217 0
h 90 92 0
h 90 94 0
h 90 122 0
h 90 218 0
h 91 92 0
h 91 95 0
h 91 123 0
h 91 219 0
h 92 96 0
h 92 124 0
h 92 220 0
h 93 94 0
h 93 95 0
h 93 125 0
h 93 221 0
h 94 96 0
h 94 126 0
h 94 222 0
h 95 96 0
h 95 127 0
h 95 223 0
h 96 128 0
h 96 224 0
h 97 98 0
h 97 99 0
h 97 101 0
h 97 105 0
h 97 113 0
h 97 225 0
h 98 100 0
h 98 102 0
h 98 106 0
h 98 114 0
h 98 226 0
h 99 100 0
h 99 103 0
h 99 107 0
h 99 115 0
h 99 227 0
h 100 104 0
h 100 108 0
h 100 116 0
h 100 228 0
h 101 102 0
h 101 103 0
h 101 109 0
h 101 117 0
h 101 229 0
h 102 104 0
h 102 110 0
h 102 118 0
h 102 230 0
h 103 104 0
h 103 111 0
h 103 119 0
h 103 231 0
h 104 112 0
h 104 120 0
h 104 232 0
h 105 106 0
h 105 107 0
h 105 109 0
h 105 121 0
h 105 233 0
h 106 108 0
h 106 110 0
h 106 122 0
h 106 234 0
h 107 108 0
h 107 111 0
h 107 123 0
h 107 235 0
h 108 112 0
h 108 124 0
h 108 236 0
h 109 110 0
h 109 111 0
h 109 125 0
h 109 237 0
h 110 112 0
h 110 126 0
h 110 238 0
h 111 112 0
h 111 127 0
h 111 239 0
h 112 128 0
h 112 240 0
h 113 114 0
h 113 115 0
h 113 117 0
h 113 121 0
h 113 241 0
h 114 116 0
h 114 118 0
h 114 122 0
h 114 242 0
h 115 116 0
h 115 119 0
h 115 123 0
h 115 243 0
h 116 120 0
h 116 124 0
h 116 244 0
h 117 118 0
h 117 119 0
h 117 125 0
h 117 245 0
h 118 120 0
h 118 126 0
h 118 246 0
h 119 120 0
h 119 127 0
h 119 247 0
h 120 128 0
h 120 248 0
h 121 122 0
h 121 123 0
h 121 125 0
h 121 249 0
h 122 124 0
h 122 126 0
h 122 250 0
h 123 124 0
h 123 127 0
h 123 251 0
h 124 128 0
h 124 252 0
h 125 126 0
h 125 127 0
h 125 253 0
h 126 128 0
h 126 254 0
h 127 128 0
h 127 255 0
h 128 256 0
h 129 130 0
h 129 131 0
h 129 133 0
h 129 137 0
h 129 145 0
h 129 161 0
h 129 193 0
h 130 132 0
h 130 134 0
h 130 138 0
h 130 146 0
h 130 162 0
h 130 194 0
h 131 132 0
h 131 135 0
h 131 139 0
h 131 147 0
h 131 163 0
h 131 195 0
h 132 136 0
h 132 140 0
h 132 148 0
h 132 164 0
h 132 196 0
h 133 134 0
h 133 135 0
h 133 141 0
h 133 149 0
h 133 165 0
h 133 197 0
h 134 136 0
h 134 142 0
h 134 150 0
h 134 166 0
h 134 198 0
h 135 136 0
h 135 143 0
h 135 151 0
h 135 167 0
h 135 199 0
h 136 144 0
h 136 152 0
h 136 168 0
h 136 200 0
h 137 138 0
h 137 139 0
h 137 141 0
h 137 153 0
h 137 169 0
h 137 201 0
h 138 140 0
h 138 142 0
h 138 154 0
h 138 170 0
h 138 202 0
h 139 140 0
h 139 143 0
h 139 155 0
h 139 171 0
h 139 203 0
h 140 144 0
h 140 156 0
h 140 172 0
h 140 204 0
h 141 142 0
h 141 143 0
h 141 157 0
h 141 173 0
h 141 205 0
h 142 144 0
h 142 158 0
h 142 174 0
h 142 206 0
h 143 144 0
h 143 159 0
h 143 175 0
h 143 207 0
h 144 160 0
h 144 176 0
h 144 208 0
h 145 146 0
h 145 147 0
h 145 149 0
h 145 153 0
h 145 177 0
h 145 209 0
h 146 148 0
h 146 150 0
h 146 154 0
h 146 178 0
h 146 210 0
h 147 148 0
h 147 151 0
h 147 155 0
h 147 179 0
h 147 211 0
h 148 152 0
h 148 156 0
h 148 180 0
h 148 212 0
h 149 150 0
h 149 151 0
h 149 157 0
h 149 181 0
h 149 213 0
h 150 152 0
h 150 158 0
h 150 182 0
h 150 214 0
h 151 152 0
h 151 159 0
h 151 183 0
h 151 215 0
h 152 160 0
h 152 184 0
h 152 216 0
h 153 154 0
h 153 155 0
h 153 157 0
h 153 185 0
h 153 217 0
h 154 156 0
h 154 158 0
h 154 186 0
h 154 218 0
h 155 156 0
h 155 159 0
h 155 187 0
h 155 219 0
h 156 160 0
h 156 188 0
h 156 220 0
h 157 158 0
h 157 159 0
h 157 189 0
h 157 221 0
h 158 160 0
h 158 190 0
h 158 222 0
h 159 160 0
h 159 191 0
h 159 223 0
h 160 192 0
h 160 224 0
h 161 162 0
h 161 163 0
h 161 165 0
h 161 169 0
h 161 177 0
h 161 225 0
h 162 164 0
h 162 166 0
h 162 170 0
h 162 178 0
h 162 226 0
h 163 164 0
h 163 167 0
h 163 171 0
h 163 179 0
h 163 227 0
h 164 168 0
h 164 172 0
h 164 180 0
h 164 228 0
h 165 166 0
h 165 167 0
h 165 173 0
h 165 181 0
h 165 229 0
h 166 168 0
h 166 174 0
h 166 182 0
h 166 230 0
h 167 168 0
h 167 175 0
h 167 183 0
h 167 231 0
h 168 176 0
h 168 184 0
h 168 232 0
h 169 170 0
h 169 171 0
h 169 173 0
h 169 185 0
h 169 233 0
h 170 172 0
h 170 174 0
h 170 186 0
h 170 234 0
h 171 172 0
h 171 175 0
h 171 187 0
h 171 235 0
h 172 176 0
h 172 188 0
h 172 236 0
h 173 174 0
h 173 175 0
h 173 189 0
h 173 237 0
h 174 176 0
h 174 190 0
h 174 238 0
h 175 176 0
h 175 191 0
h 175 239 0
h 176 192 0
h 176 240 0
h 177 178 0
h 177 179 0
h 177 181 0
h 177 185 0
h 177 241 0
h 178 180 0
h 178 182 0
h 178 186 0
h 178 242 0
h 179 180 0
h 179 183 0
h 179 187 0
h 179 243 0
h 180 184 0
h 180 188 0
h 180 244 0
h 181 182 0
h 181 183 0
h 181 189 0
h 181 245 0
h 182 184 0
h 182 190 0
h 182 246 0
h 183 184 0
h 183 191 0
h 183 247 0
h 184 192 0
h 184 248 0
h 185 186 0
h 185 187 0
h 185 189 0
h 185 249 0
h 186 188 0
h 186 190 0
h 186 250 0
h 187 188 0
h 187 191 0
h 187 251 0
h 188 192 0
h 188 252 0
h 189 190 0
h 189 191 0
h 189 253 0
h 190 192 0
h 190 254 0
h 191 192 0
h 191 255 0
h 192 256 0
h 193 194 0
h 193 195 0
h 193 197 0
h 193 201 0
h 193 209 0
h 193 225 0
h 194 196 0
h 194 198 0
h 194 202 0
h 194 210 0
h 194 226 0
h 195 196 0
h 195 199 0
h 195 203 0
h 195 211 0
h 195 227 0
h 196 200 0
h 196 204 0
h 196 212 0
h 196 228 0
h 197 198 0
h 197 199 0
h 197 205 0
h 197 213 0
h 197 229 0
h 198 200 0
h 198 206 0
h 198 214 0
h 198 230 0
h 199 200 0
h 199 207 0
h 199 215 0
h 199 231 0
h 200 208 0
h 200 216 0
h 200 232 0
h 201 202 0
h 201 203 0
h 201 205 0
h 201 217 0
h 201 233 0
h 202 204 0
h 202 206 0
h 202 218 0
h 202 234 0
h 203 204 0
h 203 207 0
h 203 219 0
h 203 235 0
h 204 208 0
h 204 220 0
h 204 236 0
h 205 206 0
h 205 207 0
h 205 221 0
h 205 237 0
h 206 208 0
h 206 222 0
h 206 238 0
h 207 208 0
h 207 223 0
h 207 239 0
h 208 224 0
h 208 240 0
h 209 210 0
h 209 211 0
h 209 213 0
h 209 217 0
h 209 241 0
h 210 212 0
h 210 214 0
h 210 218 0
h 210 242 0
h 211 212 0
h 211 215 0
h 211 219 0
h 211 243 0
h 212 216 0
h 212 220 0
h 212 244 0
h 213 214 0
h 213 215 0
h 213 221 0
h 213 245 0
h 214 216 0
h 214 222 0
h 214 246 0
h 215 216 0
h 215 223 0
h 215 247 0
h 216 224 0
h 216 248 0
h 217 218 0
h 217 219 0
h 217 221 0
h 217 249 0
h 218 220 0
h 218 222 0
h 218 250 0
h 219 220 0
h 219 223 0
h 219 251 0
h 220 224 0
h 220 252 0
h 221 222 0
h 221 223 0
h 221 253 0
h 222 224 0
h 222 254 0
h 223 224 0
h 223 255 0
h 224 256 0
h 225 226 0
h 225 227 0
h 225 229 0
h 225 233 0
h 225 241 0
h 226 228 0
h 226 230 0
h 226 234 0
h 226 242 0
h 227 228 0
h 227 231 0
h 227 235 0
h 227 243 0
h 228 232 0
h 228 236 0
h 228 244 0
h 229 230 0
h 229 231 0
h 229 237 0
h 229 245 0
h 230 232 0
h 230 238 0
h 230 246 0
h 231 232 0
h 231 239 0
h 231 247 0
h 232 240 0
h 232 248 0
h 233 234 0
h 233 235 0
h 233 237 0
h 233 249 0
h 234 236 0
h 234 238 0
h 234 250 0
h 235 236 0
h 235 239 0
h 235 251 0
h 236 240 0
h 236 252 0
h 237 238 0
h 237 239 0
h 237 253 0
h 238 240 0
h 238 254 0
h 239 240 0
h 239 255 0
h 240 256 0
h 241 242 0
h 241 243 0
h 241 245 0
h 241 249 0
h 242 244 0
h 242 246 0
h 242 250 0
h 243 244 0
h 243 247 0
h 243 251 0
h 244 248 0
h 244 252 0
h 245 246 0
h 245 247 0
h 245 253 0
h 246 248 0
h 246 254 0
h 247 248 0
h 247 255 0
h 248 256 0
h 249 250 0
h 249 251 0
h 249 253 0
h 250 252 0
h 250 254 0
h 251 252 0
h 251 255 0
h 252 256 0
h 253 254 0
h 253 255 0
h 254 256 0
h 255 256 0
